3 
4  31 51 
5  12 25 42 58 
6  14 29 44 59 
7  14 29 44 59 
8  14 29 44 
9  00 15 30 45 
10  00 14 29 44 59 
11  14 29 44 59 
12  14 29 44 59 
13  14 29 44 59 
14  14 29 44 59 
15  14 29 44 59 
16  14 29 44 59 
17  14 29 44 59 
18  14 29 44 59 
19  14 29 44 
20  02 17 32 46 
21  02 17 32 47 
22  02 17 31 49 
23 
